Total weight: 1475.4966555357812
Route 1: 0 2 45 46 8 7 6 4 5 3 1 100 0 
Route 2: 0 12 14 15 11 9 10 13 16 17 47 0 
Route 3: 0 20 18 48 21 23 22 49 19 25 24 0 
Route 4: 0 29 27 26 30 32 28 31 34 50 0 
Route 5: 0 85 33 37 35 36 70 0 
Route 6: 0 54 39 43 40 38 41 72 71 93 94 96 0 
Route 7: 0 42 44 82 99 0 
Route 8: 0 67 62 84 56 66 80 0 
Route 9: 0 69 98 88 55 68 61 81 0 
Route 10: 0 64 83 77 75 58 74 57 0 
Route 11: 0 91 92 95 51 76 89 63 0 
Route 12: 0 53 60 73 79 78 0 
Route 13: 0 90 65 52 86 59 97 87 0 
